8951.0, 6063.0, 6061.0, 5105.0, 5096.0, 4139.0, 3164.0, 2211.0, 2211.0, 1258.0, 1250.0, 1246.0, 1246.0, 1244.0, 1241.0, 1241.0, 1235.0, 1232.0, 273, 273, 272, 271, 270, 265, 265, 262, 262, 258, 254, 254, 248, 248, 244, 244, 243, 241, 237, 236, 234, 233, 230, 227, 225, 223, 223, 221, 215, 215, 214, 213, 213, 213, 211, 211, 209, 209, 208, 198, 198, 198, 193, 193, 193, 190, 190, 190, 190, 188, 184, 180, 180, 177, 174, 174, 171, 170, 169, 167, 166, 164, 164, 162, 162, 160, 160, 160, 158, 158, 158, 158, 158, 156, 156, 154, 154, 153, 153, 151, 151, 149, 
penalties info:
(0, 0, 0)
21
0
12
0
0
